Optimal - objective value 20480.00000000
      0 F                  20480                       1
      2 m_4_3                  1                       0
      3 m_3_6                  1                       0
      5 m_3_7                  1                       0
      8 m_9_3                  1                       0
      9 m_3_10                 1                       0
     12 m_1_3                  1                       0
     14 m_2_3                  1                       0
     16 m_8_3                  1                       0
     17 m_3_5                  1                       0
     19 m_4_6                  1                       0
     21 m_4_7                  1                       0
     23 m_4_9                  1                       0
     25 m_4_10                 1                       0
     28 m_1_4                  1                       0
     30 m_2_4                  1                       0
     31 m_4_8                  1                       0
     33 m_4_5                  1                       0
     35 m_6_7                  1                       0
     38 m_9_6                  1                       0
     39 m_6_10                 1                       0
     42 m_1_6                  1                       0
     44 m_2_6                  1                       0
     46 m_8_6                  1                       0
     47 m_6_5                  1                       0
     50 m_9_7                  1                       0
     51 m_7_10                 1                       0
     54 m_1_7                  1                       0
     56 m_2_7                  1                       0
     58 m_8_7                  1                       0
     59 m_7_5                  1                       0
     61 m_9_10                 1                       0
     64 m_1_9                  1                       0
     66 m_2_9                  1                       0
     68 m_8_9                  1                       0
     69 m_9_5                  1                       0
     72 m_1_10                 1                       0
     74 m_2_10                 1                       0
     76 m_8_10                 1                       0
     78 m_5_10                 1                       0
     80 m_2_1                  1                       0
     81 m_1_8                  1                       0
     83 m_1_5                  1                       0
     85 m_2_8                  1                       0
     87 m_2_5                  1                       0
     89 m_8_5                  1                       0
     91 s_3                    6                       0
     92 m_3_3                  1                       0
     93 s_4                    3                       0
     94 m_4_4                  1                       0
     95 s_6                    7                       0
     96 m_6_6                  1                       0
     97 s_7                    8                       0
     98 m_7_7                  1                       0
     99 s_9                    5                       0
    100 m_9_9                  1                       0
    101 s_10                  10                       0
    102 m_10_10                1                       0
    103 s_1                    2                       0
    104 m_1_1                  1                       0
    105 s_2                    1                       0
    106 m_2_2                  1                       0
    107 s_8                    4                       0
    108 m_8_8                  1                       0
    109 s_5                    9                       0
    110 m_5_5                  1                       0
    111 y_3_3                  1                       0
    117 y_1_3                  1                       0
    122 y_4_4                  1                       0
    127 y_1_4                  1                       0
    128 y_2_4                  1                       0
    133 y_6_6                  1                       0
    137 y_1_6                  1                       0
    144 y_7_7                  1                       0
    147 y_1_7                  1                       0
    155 y_9_9                  1                       0
    157 y_1_9                  1                       0
    159 y_8_9                  1                       0
    166 y_10_10                1                       0
    170 y_5_10                 1                       0
    177 y_1_1                  1                       0
    178 y_2_1                  1                       0
    188 y_2_2                  1                       0
    197 y_1_8                  1                       0
    198 y_2_8                  1                       0
    199 y_8_8                  1                       0
    207 y_1_5                  1                       0
    210 y_5_5                  1                       0
